p wcnf 140 1600
3 -135 138 0
3 -134 136 0
4 -130 -132 0
10 -129 -130 0
9 -129 133 0
7 -128 136 0
5 -127 -129 0
7 -126 -127 0
8 -126 136 0
8 -125 -136 0
3 -125 136 0
8 -123 135 0
7 -122 -127 0
2 -122 124 0
3 -122 139 0
9 -121 133 0
10 -120 -135 0
4 -119 -121 0
10 -118 -139 0
8 -118 -136 0
3 -118 -135 0
8 -118 -122 0
1 -118 124 0
7 -118 133 0
10 -117 -139 0
8 -116 -126 0
5 -116 130 0
6 -116 140 0
7 -113 -125 0
7 -113 125 0
9 -112 -120 0
9 -111 -122 0
10 -111 -116 0
3 -111 -112 0
9 -110 -120 0
9 -109 -125 0
9 -108 -126 0
4 -108 -114 0
6 -108 122 0
7 -107 128 0
2 -105 137 0
8 -103 132 0
5 -103 136 0
8 -101 110 0
9 -100 -125 0
6 -100 -106 0
7 -100 -104 0
9 -100 126 0
10 -100 127 0
7 -99 -139 0
7 -99 -119 0
3 -99 -106 0
4 -99 133 0
8 -98 -136 0
8 -98 -121 0
4 -98 -100 0
6 -98 131 0
3 -98 132 0
9 -97 -132 0
3 -97 -102 0
9 -96 -134 0
8 -96 116 0
2 -96 124 0
9 -95 -112 0
9 -95 -98 0
10 -95 -96 0
8 -95 97 0
8 -95 110 0
4 -94 -133 0
4 -94 -113 0
5 -94 -103 0
5 -94 -96 0
2 -93 -137 0
9 -93 132 0
3 -92 -138 0
1 -92 -131 0
5 -92 -112 0
9 -92 95 0
10 -92 111 0
5 -92 115 0
5 -92 118 0
7 -91 -98 0
6 -91 121 0
9 -90 105 0
4 -90 137 0
5 -89 -121 0
2 -89 -118 0
9 -89 -105 0
7 -89 120 0
10 -89 125 0
2 -88 -110 0
7 -88 -100 0
8 -88 -90 0
3 -88 99 0
6 -88 104 0
7 -88 117 0
3 -88 121 0
4 -87 -93 0
5 -87 95 0
6 -87 134 0
7 -86 -102 0
9 -86 -91 0
1 -86 131 0
8 -85 -105 0
8 -85 -103 0
3 -85 -94 0
8 -85 90 0
3 -85 127 0
2 -85 133 0
7 -84 -132 0
7 -84 -125 0
6 -84 91 0
4 -84 136 0
4 -83 -140 0
5 -83 -117 0
7 -83 -86 0
8 -83 -84 0
6 -83 93 0
7 -83 125 0
5 -82 -140 0
6 -82 124 0
7 -82 140 0
2 -81 -132 0
4 -81 -104 0
9 -81 102 0
7 -81 106 0
10 -81 134 0
2 -80 -105 0
10 -80 82 0
5 -80 85 0
7 -80 95 0
6 -80 100 0
4 -79 -130 0
7 -79 -126 0
4 -79 -108 0
3 -79 -86 0
9 -79 84 0
2 -79 103 0
5 -79 132 0
10 -79 135 0
8 -79 137 0
2 -78 -105 0
6 -78 -104 0
2 -77 -128 0
5 -77 -119 0
10 -77 103 0
9 -77 104 0
2 -76 113 0
6 -75 -114 0
5 -75 -99 0
6 -75 -80 0
2 -75 111 0
3 -75 118 0
7 -75 128 0
4 -75 138 0
2 -74 -108 0
4 -74 89 0
4 -74 91 0
2 -74 93 0
3 -74 133 0
8 -73 -110 0
8 -72 -136 0
9 -72 -123 0
2 -72 -108 0
5 -72 -100 0
3 -72 -86 0
4 -72 73 0
4 -72 74 0
4 -72 86 0
8 -72 122 0
4 -72 135 0
2 -72 139 0
9 -71 -134 0
9 -71 -87 0
3 -71 -84 0
4 -70 -77 0
8 -70 110 0
2 -70 123 0
5 -70 136 0
4 -69 -124 0
7 -69 -98 0
2 -69 -75 0
5 -69 95 0
8 -69 100 0
8 -69 110 0
8 -68 -128 0
9 -68 -88 0
1 -68 69 0
2 -67 -105 0
2 -67 86 0
4 -67 96 0
9 -66 -111 0
9 -66 -94 0
3 -66 118 0
10 -66 139 0
4 -65 -137 0
5 -65 -131 0
3 -65 -108 0
7 -65 -85 0
8 -65 79 0
1 -65 131 0
9 -64 -124 0
9 -64 -116 0
9 -64 -100 0
8 -64 -82 0
2 -64 66 0
3 -64 68 0
6 -64 116 0
3 -64 121 0
7 -63 -94 0
9 -63 -80 0
9 -63 -75 0
7 -63 -72 0
4 -63 105 0
7 -62 -140 0
5 -62 -137 0
2 -62 -71 0
7 -62 84 0
5 -62 99 0
3 -62 102 0
7 -62 103 0
8 -62 104 0
2 -62 115 0
6 -62 123 0
1 -62 136 0
1 -61 -104 0
9 -61 -93 0
5 -61 78 0
4 -61 107 0
6 -60 -130 0
3 -60 -90 0
4 -60 -82 0
5 -60 -78 0
1 -60 96 0
3 -60 117 0
3 -60 139 0
3 -59 -109 0
4 -59 -102 0
8 -59 66 0
5 -58 -110 0
10 -58 -100 0
8 -58 -84 0
4 -58 -76 0
7 -58 -61 0
2 -58 82 0
1 -57 -114 0
2 -57 -109 0
3 -57 68 0
7 -57 88 0
7 -57 105 0
5 -56 -137 0
4 -56 -71 0
5 -56 105 0
5 -56 117 0
10 -55 -117 0
5 -55 -115 0
5 -55 -97 0
9 -55 -62 0
9 -55 86 0
8 -55 126 0
4 -54 -123 0
2 -54 -110 0
2 -54 -95 0
8 -54 -94 0
2 -54 -86 0
3 -54 -69 0
10 -54 -63 0
4 -54 -55 0
6 -54 93 0
8 -54 95 0
7 -54 98 0
6 -54 111 0
6 -54 126 0
1 -53 -101 0
3 -53 -77 0
6 -53 -59 0
2 -53 55 0
4 -53 77 0
8 -53 103 0
8 -53 115 0
10 -53 123 0
3 -52 -117 0
2 -52 -107 0
5 -52 -98 0
7 -52 88 0
2 -52 91 0
9 -52 92 0
2 -51 -136 0
9 -51 -116 0
8 -51 -97 0
9 -51 -79 0
3 -51 64 0
9 -51 80 0
10 -51 86 0
1 -51 107 0
10 -50 -139 0
3 -50 -132 0
10 -50 -107 0
3 -50 -104 0
8 -50 -83 0
8 -50 51 0
10 -50 104 0
4 -49 -113 0
3 -49 -67 0
10 -49 -63 0
6 -49 88 0
9 -49 98 0
2 -49 122 0
10 -49 137 0
7 -48 -118 0
8 -48 -59 0
10 -48 78 0
8 -48 83 0
10 -48 93 0
4 -48 121 0
5 -47 -140 0
1 -47 -121 0
3 -47 -106 0
6 -47 -73 0
10 -47 98 0
1 -47 117 0
5 -46 -138 0
3 -46 -131 0
9 -46 -129 0
5 -46 -91 0
3 -46 -90 0
8 -46 -82 0
6 -46 -50 0
3 -46 52 0
1 -46 58 0
5 -46 60 0
1 -46 91 0
1 -46 100 0
8 -46 112 0
4 -46 113 0
1 -45 -120 0
4 -45 -88 0
2 -45 -79 0
2 -45 -57 0
4 -45 -56 0
8 -45 64 0
9 -45 75 0
4 -45 88 0
6 -45 120 0
9 -45 136 0
7 -45 138 0
10 -44 -116 0
9 -44 -112 0
9 -44 -110 0
5 -44 -96 0
9 -44 -71 0
10 -44 -66 0
9 -44 -51 0
2 -44 49 0
8 -44 52 0
4 -44 54 0
4 -44 82 0
7 -44 99 0
9 -44 108 0
6 -44 122 0
7 -44 132 0
4 -43 -80 0
6 -43 -56 0
7 -43 75 0
1 -43 96 0
9 -42 -120 0
7 -42 70 0
5 -42 78 0
1 -42 87 0
8 -42 98 0
7 -42 139 0
8 -41 -130 0
7 -41 -128 0
1 -41 -126 0
4 -41 -104 0
6 -41 -77 0
7 -41 -74 0
3 -41 -48 0
5 -41 54 0
6 -41 88 0
8 -41 122 0
4 -41 123 0
6 -40 -133 0
7 -40 -123 0
5 -40 -110 0
4 -40 74 0
10 -40 85 0
8 -40 123 0
10 -40 130 0
9 -39 -124 0
5 -39 -107 0
7 -39 -79 0
2 -39 -56 0
1 -39 -55 0
4 -39 88 0
3 -39 117 0
9 -39 120 0
2 -39 128 0
6 -38 -47 0
9 -38 48 0
9 -38 53 0
4 -38 120 0
8 -38 135 0
6 -37 -65 0
4 -37 67 0
1 -37 102 0
2 -37 113 0
1 -37 122 0
4 -37 136 0
7 -36 -140 0
6 -36 -110 0
2 -36 -64 0
1 -36 54 0
2 -36 65 0
7 -36 88 0
5 -36 95 0
6 -36 108 0
7 -36 135 0
4 -35 -117 0
6 -35 -116 0
6 -35 -114 0
7 -35 -56 0
3 -35 49 0
7 -35 99 0
7 -35 134 0
6 -34 42 0
9 -34 52 0
6 -34 80 0
7 -34 92 0
6 -34 113 0
6 -34 117 0
6 -33 -119 0
8 -33 -101 0
3 -33 -86 0
2 -33 -54 0
2 -33 -37 0
4 -33 80 0
3 -33 123 0
2 -33 138 0
7 -32 -134 0
9 -32 -93 0
8 -32 -86 0
7 -32 -78 0
9 -32 -69 0
9 -32 -51 0
5 -32 -40 0
5 -32 43 0
5 -32 51 0
2 -32 110 0
7 -32 123 0
9 -32 135 0
7 -31 -117 0
4 -31 -115 0
2 -31 -110 0
4 -31 -103 0
1 -31 -91 0
7 -31 58 0
3 -31 83 0
7 -31 86 0
4 -31 102 0
8 -31 106 0
3 -31 115 0
9 -31 123 0
6 -30 -139 0
5 -30 -98 0
10 -30 -92 0
7 -30 -66 0
8 -30 -53 0
3 -29 -130 0
9 -29 -104 0
5 -29 -44 0
2 -29 -31 0
6 -29 38 0
2 -29 41 0
1 -29 54 0
6 -29 67 0
6 -29 74 0
5 -28 -137 0
9 -28 -129 0
7 -28 -85 0
2 -28 -74 0
8 -28 -69 0
4 -28 31 0
5 -28 46 0
9 -28 75 0
7 -28 98 0
6 -28 106 0
6 -28 113 0
9 -27 -133 0
3 -27 -131 0
9 -27 -58 0
7 -27 44 0
4 -27 74 0
8 -27 76 0
3 -27 90 0
9 -27 94 0
8 -27 101 0
9 -26 -83 0
7 -26 -48 0
10 -26 74 0
8 -26 110 0
2 -26 114 0
2 -26 123 0
4 -25 -133 0
3 -25 -132 0
2 -25 -62 0
9 -25 48 0
8 -25 70 0
6 -25 78 0
8 -25 92 0
5 -25 128 0
7 -25 131 0
7 -25 140 0
8 -24 -140 0
3 -24 -132 0
6 -24 -84 0
4 -24 30 0
7 -24 35 0
2 -24 45 0
3 -24 59 0
9 -24 121 0
2 -23 -112 0
9 -23 -108 0
4 -23 -61 0
9 -23 -59 0
1 -23 -49 0
2 -23 -27 0
7 -23 33 0
9 -23 97 0
8 -23 112 0
6 -22 -129 0
7 -22 -124 0
8 -22 -111 0
7 -22 -97 0
1 -22 -73 0
1 -22 -49 0
8 -22 -27 0
9 -22 -25 0
8 -22 37 0
4 -22 41 0
7 -22 62 0
3 -22 71 0
2 -22 77 0
4 -22 113 0
10 -22 137 0
3 -21 -92 0
9 -21 -69 0
4 -21 -57 0
10 -21 -43 0
1 -21 48 0
6 -21 84 0
9 -21 88 0
2 -21 91 0
5 -21 127 0
2 -21 129 0
10 -20 -138 0
5 -20 -123 0
3 -20 -109 0
7 -20 -77 0
5 -20 -32 0
1 -20 -30 0
3 -20 37 0
2 -20 98 0
9 -20 103 0
9 -20 108 0
2 -19 -60 0
9 -19 -44 0
7 -19 -38 0
2 -19 29 0
7 -19 100 0
2 -19 107 0
8 -19 114 0
10 -19 118 0
2 -18 -118 0
2 -18 -90 0
10 -18 -89 0
4 -18 -62 0
10 -18 -51 0
4 -18 -42 0
4 -18 -19 0
10 -18 30 0
9 -18 32 0
3 -18 73 0
2 -18 77 0
5 -18 83 0
4 -18 85 0
2 -18 99 0
9 -18 106 0
7 -17 -137 0
7 -17 -132 0
4 -17 -112 0
7 -17 -110 0
9 -17 -107 0
5 -17 -102 0
6 -17 -94 0
8 -17 -86 0
6 -17 -64 0
5 -17 -51 0
5 -17 80 0
7 -17 93 0
2 -17 121 0
6 -16 -125 0
5 -16 -121 0
2 -16 -99 0
7 -16 -78 0
6 -16 -59 0
2 -16 -17 0
1 -16 27 0
6 -16 47 0
5 -16 99 0
5 -16 105 0
5 -16 110 0
4 -15 -138 0
6 -15 -115 0
6 -15 -111 0
8 -15 -105 0
10 -15 -65 0
7 -15 -16 0
7 -15 34 0
6 -15 49 0
5 -15 106 0
10 -14 -71 0
3 -14 -47 0
4 -14 -44 0
5 -14 -28 0
8 -14 34 0
2 -14 36 0
10 -14 86 0
2 -13 -126 0
6 -13 -123 0
7 -13 -108 0
3 -13 -51 0
2 -13 -34 0
2 -13 -28 0
4 -13 -23 0
8 -13 -18 0
7 -13 17 0
5 -13 23 0
9 -13 25 0
2 -13 32 0
9 -13 38 0
4 -13 86 0
7 -13 115 0
3 -12 -40 0
9 -12 28 0
3 -12 37 0
10 -12 55 0
8 -12 94 0
9 -12 100 0
6 -12 102 0
5 -12 109 0
4 -11 -121 0
6 -11 -92 0
7 -11 -58 0
6 -11 -17 0
10 -11 -12 0
4 -11 48 0
8 -11 64 0
10 -11 88 0
6 -11 116 0
4 -11 118 0
7 -11 133 0
8 -10 -139 0
5 -10 -108 0
8 -10 -99 0
2 -10 -92 0
4 -10 -62 0
5 -10 -57 0
7 -10 -30 0
3 -10 22 0
6 -10 46 0
5 -10 62 0
5 -10 99 0
3 -10 111 0
7 -9 -139 0
4 -9 -133 0
5 -9 -121 0
7 -9 -108 0
3 -9 -103 0
4 -9 -55 0
3 -9 27 0
6 -9 31 0
7 -9 86 0
8 -9 122 0
3 -9 134 0
3 -8 -130 0
8 -8 -126 0
6 -8 -122 0
1 -8 -83 0
8 -8 -9 0
1 -8 10 0
4 -8 56 0
5 -8 65 0
8 -8 72 0
8 -8 87 0
2 -8 96 0
10 -8 102 0
2 -8 112 0
6 -8 113 0
6 -8 128 0
4 -8 129 0
2 -8 133 0
2 -7 -128 0
9 -7 -118 0
4 -7 -108 0
8 -7 -32 0
3 -7 11 0
9 -7 25 0
5 -7 32 0
5 -7 43 0
3 -7 53 0
7 -7 66 0
10 -6 -112 0
9 -6 -80 0
5 -6 -36 0
3 -6 -7 0
2 -6 21 0
3 -6 93 0
7 -6 98 0
2 -6 105 0
10 -6 140 0
8 -5 -136 0
5 -5 -116 0
4 -5 -70 0
6 -5 -68 0
4 -5 -52 0
6 -5 8 0
6 -5 55 0
5 -5 80 0
2 -5 93 0
3 -5 109 0
8 -5 111 0
3 -4 -93 0
3 -4 -40 0
7 -4 -5 0
7 -4 38 0
1 -4 45 0
9 -4 62 0
5 -4 66 0
5 -4 77 0
4 -4 82 0
7 -3 -135 0
2 -3 -131 0
4 -3 -51 0
6 -3 4 0
6 -3 11 0
5 -3 27 0
7 -3 37 0
8 -3 42 0
3 -3 50 0
9 -3 65 0
8 -3 92 0
9 -3 110 0
4 -3 132 0
2 -2 -134 0
6 -2 -73 0
7 -2 -43 0
7 -2 -34 0
2 -2 -20 0
2 -2 20 0
8 -2 27 0
3 -2 40 0
9 -2 41 0
1 -2 66 0
5 -2 81 0
7 -2 99 0
7 -2 131 0
6 -2 137 0
6 -2 138 0
2 -1 -134 0
9 -1 -131 0
9 -1 -106 0
8 -1 -22 0
10 -1 32 0
2 -1 83 0
4 -1 104 0
5 -1 122 0
6 1 -134 0
2 1 -107 0
3 1 -64 0
8 1 -28 0
9 1 -6 0
1 1 71 0
7 1 99 0
3 2 -123 0
2 2 -97 0
3 2 -80 0
9 2 -58 0
8 2 -57 0
4 2 -44 0
10 2 7 0
6 2 9 0
6 2 82 0
9 2 95 0
7 2 96 0
1 3 -137 0
5 3 -125 0
4 3 -115 0
6 3 -82 0
1 3 -44 0
5 3 -38 0
5 3 31 0
9 3 37 0
3 3 53 0
5 3 63 0
1 3 64 0
7 3 109 0
9 3 128 0
6 4 -139 0
7 4 -45 0
3 4 -28 0
4 4 -23 0
6 4 -12 0
3 4 89 0
2 4 95 0
8 4 132 0
4 5 -41 0
4 5 -8 0
7 5 9 0
2 5 42 0
6 5 61 0
7 5 71 0
8 5 100 0
2 6 -104 0
6 6 -16 0
4 6 84 0
2 6 110 0
1 6 126 0
7 7 -122 0
7 7 -103 0
2 7 -90 0
2 7 43 0
2 7 99 0
9 7 103 0
4 7 114 0
6 7 132 0
9 8 -132 0
9 8 -96 0
6 8 -71 0
6 8 62 0
7 8 65 0
7 8 89 0
9 8 110 0
3 9 -128 0
9 9 30 0
10 9 47 0
2 9 62 0
3 9 137 0
3 10 -138 0
8 10 -130 0
5 10 -90 0
9 10 -70 0
5 10 -63 0
2 10 -57 0
10 10 -54 0
9 10 27 0
6 10 92 0
2 10 94 0
10 10 120 0
3 11 -121 0
8 11 -92 0
1 11 -67 0
3 11 -56 0
10 11 -44 0
10 11 -22 0
6 11 18 0
6 11 41 0
9 11 84 0
6 11 105 0
1 11 117 0
5 12 -140 0
2 12 -138 0
8 12 -126 0
4 12 -97 0
5 12 -49 0
7 12 -45 0
4 12 28 0
5 12 50 0
9 12 86 0
6 12 89 0
3 12 120 0
4 13 -97 0
5 13 -75 0
7 13 -37 0
5 13 88 0
5 13 104 0
6 14 -138 0
10 14 -104 0
6 14 -99 0
6 14 -94 0
2 14 -90 0
4 14 38 0
6 14 50 0
5 14 102 0
4 15 -108 0
6 15 -72 0
10 15 -44 0
8 15 -35 0
5 15 -20 0
6 15 18 0
9 15 64 0
9 16 -121 0
7 16 -89 0
7 16 -86 0
3 16 -38 0
2 16 -20 0
4 16 19 0
6 16 44 0
6 16 87 0
3 16 130 0
2 16 138 0
8 17 -109 0
5 17 -77 0
6 17 -70 0
4 17 -68 0
9 17 -19 0
10 17 26 0
9 17 28 0
9 17 31 0
6 17 89 0
5 17 104 0
1 17 111 0
9 17 118 0
1 17 133 0
5 18 -122 0
2 18 -121 0
6 18 -113 0
5 18 -95 0
10 18 -94 0
10 18 -92 0
9 18 -80 0
9 18 -70 0
8 18 25 0
7 18 71 0
5 18 99 0
10 18 116 0
7 18 123 0
8 19 -117 0
5 19 -99 0
3 19 -91 0
10 19 -39 0
6 19 48 0
10 19 75 0
5 19 123 0
2 19 140 0
4 20 -127 0
4 20 -98 0
2 20 -74 0
4 20 -64 0
3 20 -56 0
7 20 31 0
8 20 65 0
3 20 75 0
6 20 78 0
8 20 109 0
7 21 -137 0
7 21 -131 0
4 21 -124 0
1 21 -118 0
7 21 -90 0
3 21 -70 0
9 21 -32 0
6 21 -25 0
1 21 30 0
6 21 43 0
10 21 49 0
10 21 57 0
3 21 77 0
8 21 89 0
5 21 134 0
6 22 -126 0
7 22 -103 0
2 22 -102 0
5 22 -94 0
2 22 -28 0
3 22 49 0
9 22 120 0
5 22 132 0
4 23 -127 0
2 23 -111 0
7 23 -87 0
2 23 -73 0
9 23 -68 0
9 23 -64 0
7 23 -35 0
7 23 102 0
6 23 131 0
4 24 -107 0
9 24 -103 0
6 24 -52 0
1 24 37 0
2 24 38 0
5 24 42 0
6 24 47 0
3 24 81 0
1 24 99 0
6 24 110 0
3 24 123 0
4 25 -132 0
4 25 -114 0
7 25 -94 0
8 25 -87 0
1 25 -77 0
7 25 -40 0
4 25 45 0
3 25 47 0
9 25 52 0
2 25 108 0
7 25 112 0
4 25 116 0
4 25 117 0
4 26 -117 0
4 26 -105 0
2 26 -101 0
4 26 -94 0
1 26 -57 0
8 26 -39 0
9 26 64 0
4 26 129 0
7 26 130 0
5 26 132 0
5 27 -72 0
9 27 -69 0
9 27 -66 0
1 27 -62 0
1 27 -54 0
9 27 -31 0
6 27 30 0
3 27 71 0
3 27 106 0
9 27 113 0
9 27 122 0
10 27 125 0
10 28 -139 0
6 28 -104 0
4 28 -68 0
3 28 54 0
5 28 57 0
5 28 73 0
9 28 78 0
8 28 106 0
7 28 119 0
3 28 126 0
3 28 133 0
9 28 140 0
6 29 -77 0
3 29 -74 0
7 29 -58 0
5 29 89 0
6 29 125 0
4 30 -121 0
8 30 -106 0
1 30 -96 0
3 30 -93 0
7 30 64 0
1 30 111 0
3 30 130 0
6 30 139 0
7 31 -118 0
5 31 -110 0
8 31 -53 0
6 31 -43 0
3 31 46 0
8 31 120 0
6 31 132 0
8 32 -128 0
2 32 -53 0
7 32 -52 0
4 32 43 0
5 32 102 0
6 32 103 0
2 32 117 0
3 33 -98 0
8 33 -97 0
4 33 -87 0
1 33 -81 0
4 33 -51 0
6 33 38 0
7 33 45 0
8 33 56 0
2 33 75 0
1 33 87 0
6 33 107 0
2 34 -134 0
3 34 -131 0
3 34 -122 0
3 34 -119 0
4 34 -105 0
8 34 -81 0
8 34 -73 0
8 34 -49 0
6 34 53 0
4 34 106 0
1 35 -130 0
4 35 -101 0
9 35 -93 0
9 35 -86 0
5 35 -84 0
7 35 51 0
3 35 54 0
9 35 79 0
3 35 107 0
4 35 131 0
2 36 -119 0
1 36 -97 0
6 36 -94 0
2 36 71 0
4 36 140 0
2 37 -139 0
8 37 -109 0
2 37 -108 0
3 37 -91 0
9 37 -69 0
7 37 -55 0
4 37 70 0
1 37 81 0
9 37 84 0
6 37 136 0
5 38 -136 0
7 38 -95 0
4 38 -83 0
3 38 -65 0
4 38 -63 0
7 38 62 0
3 38 73 0
7 38 83 0
6 38 94 0
2 39 -80 0
2 39 -65 0
3 39 56 0
4 39 76 0
10 39 118 0
5 40 -100 0
7 40 -89 0
2 40 -60 0
5 40 -46 0
3 40 90 0
3 40 96 0
9 40 126 0
4 41 -96 0
2 41 -95 0
10 41 73 0
6 41 86 0
9 42 -139 0
7 42 -137 0
9 42 -133 0
9 42 -127 0
6 42 -107 0
4 42 -48 0
4 42 71 0
4 42 91 0
7 42 94 0
5 42 105 0
6 42 116 0
4 43 -135 0
8 43 -77 0
3 43 -63 0
9 43 -48 0
9 43 -44 0
4 43 51 0
2 43 63 0
3 43 86 0
4 43 96 0
6 43 111 0
8 43 124 0
4 44 -139 0
1 44 -134 0
10 44 -110 0
7 44 -103 0
9 44 -86 0
4 44 93 0
7 44 118 0
9 45 -138 0
8 45 -134 0
6 45 -74 0
6 45 -72 0
7 45 49 0
5 45 51 0
2 45 67 0
1 45 91 0
8 45 113 0
5 46 -110 0
7 46 -90 0
3 46 -65 0
2 46 65 0
1 46 67 0
10 46 111 0
4 46 120 0
9 47 -122 0
9 47 -102 0
7 47 -95 0
2 47 -76 0
1 47 -72 0
9 47 135 0
7 48 -137 0
8 48 -124 0
4 48 -73 0
7 48 -71 0
8 49 -136 0
9 49 -99 0
6 49 -87 0
2 49 -71 0
6 49 88 0
5 49 105 0
9 49 132 0
2 50 -137 0
10 50 -136 0
6 50 -102 0
7 50 -82 0
2 50 -53 0
6 50 74 0
5 50 83 0
6 50 91 0
3 50 96 0
7 50 98 0
7 50 118 0
3 51 -109 0
7 51 -73 0
10 51 -57 0
3 51 70 0
6 51 78 0
6 51 93 0
4 51 98 0
6 52 -117 0
6 52 -94 0
10 52 57 0
4 52 60 0
9 52 67 0
7 52 80 0
2 52 118 0
8 52 122 0
3 52 140 0
3 53 -132 0
5 53 -103 0
7 53 -67 0
2 53 -64 0
6 53 -57 0
7 53 76 0
7 53 85 0
3 53 89 0
8 53 136 0
4 54 -117 0
6 54 -88 0
4 54 -64 0
6 54 -56 0
3 54 114 0
1 55 -124 0
8 55 -61 0
9 55 76 0
10 55 80 0
1 56 -138 0
5 56 -102 0
6 56 -98 0
4 56 65 0
10 56 98 0
2 57 -124 0
4 57 -109 0
4 57 -103 0
10 57 -101 0
10 57 -88 0
5 57 58 0
8 57 83 0
3 57 84 0
7 57 107 0
3 57 111 0
9 57 116 0
9 57 117 0
8 57 129 0
6 58 -134 0
6 58 -108 0
10 58 -106 0
4 58 -102 0
9 58 -98 0
6 58 -86 0
7 58 -74 0
5 58 59 0
9 58 61 0
7 58 64 0
3 58 65 0
8 58 122 0
7 58 124 0
3 59 -135 0
3 59 -109 0
3 59 -74 0
6 59 79 0
3 59 81 0
4 59 89 0
9 59 124 0
6 60 -135 0
4 60 -111 0
9 60 -108 0
1 60 -98 0
2 60 -90 0
2 60 -75 0
8 60 74 0
4 60 77 0
10 60 90 0
7 60 102 0
2 60 121 0
6 61 -132 0
3 61 -97 0
2 61 -93 0
9 61 -62 0
1 61 80 0
7 61 98 0
6 61 109 0
5 62 -137 0
5 62 -134 0
2 62 -107 0
7 62 -70 0
3 62 -66 0
8 62 63 0
10 62 70 0
5 62 85 0
1 62 115 0
6 62 129 0
7 62 134 0
4 63 -101 0
6 63 -95 0
4 63 -90 0
7 63 -89 0
4 63 124 0
4 63 138 0
8 64 -120 0
5 64 -119 0
2 64 -100 0
2 64 -94 0
5 64 -92 0
7 64 -83 0
3 64 -75 0
1 64 86 0
9 64 93 0
4 64 118 0
9 64 126 0
10 64 136 0
10 65 -87 0
4 65 -75 0
5 65 79 0
5 65 85 0
6 65 124 0
2 65 129 0
7 66 -135 0
4 66 -85 0
2 66 -78 0
3 66 67 0
4 66 68 0
7 66 85 0
9 66 95 0
7 67 -137 0
3 67 -128 0
3 67 73 0
4 67 100 0
6 67 102 0
6 67 106 0
3 67 122 0
2 67 126 0
7 67 139 0
4 68 -102 0
6 68 -98 0
4 68 -96 0
6 68 -69 0
7 68 74 0
3 68 79 0
8 68 82 0
6 68 86 0
2 68 88 0
8 68 105 0
9 69 -139 0
6 69 -122 0
3 69 -121 0
5 69 -92 0
7 69 -79 0
9 69 89 0
8 69 121 0
9 70 -126 0
2 70 76 0
2 70 78 0
6 70 83 0
1 70 97 0
8 70 114 0
8 70 124 0
3 70 129 0
3 70 139 0
5 71 -102 0
8 71 119 0
4 72 -121 0
5 72 -80 0
5 72 93 0
7 72 100 0
2 73 -124 0
8 73 -118 0
2 73 -100 0
8 73 -76 0
10 74 -124 0
10 74 -94 0
3 74 80 0
2 74 91 0
7 75 -133 0
2 75 -117 0
8 75 -111 0
9 75 -106 0
6 75 -92 0
5 75 -89 0
8 75 83 0
4 75 87 0
4 75 92 0
9 75 96 0
5 75 107 0
9 75 111 0
10 76 -133 0
3 76 -127 0
7 76 -118 0
3 76 -86 0
5 76 -78 0
1 76 -77 0
1 76 79 0
8 76 83 0
6 76 118 0
5 76 128 0
5 77 -124 0
7 77 -89 0
3 77 -79 0
6 77 105 0
4 77 109 0
3 78 -128 0
5 78 -127 0
6 78 -122 0
4 78 -113 0
3 78 -110 0
7 78 -88 0
2 78 90 0
2 79 -133 0
3 79 -127 0
6 79 -86 0
9 79 93 0
6 79 96 0
8 79 104 0
8 79 118 0
9 80 -122 0
7 80 -116 0
8 80 105 0
2 80 122 0
4 80 127 0
10 80 132 0
6 81 -138 0
4 81 -125 0
10 81 -121 0
4 81 -89 0
9 81 86 0
5 81 87 0
7 81 102 0
6 81 115 0
7 81 119 0
3 82 -134 0
9 82 -127 0
9 82 -110 0
7 82 134 0
5 83 -129 0
3 83 -119 0
9 83 -99 0
2 83 104 0
4 83 106 0
10 83 129 0
4 84 89 0
8 84 108 0
8 84 124 0
9 85 -127 0
7 85 -116 0
6 85 -111 0
8 85 -101 0
4 85 107 0
4 85 123 0
10 86 -128 0
6 86 -118 0
3 86 -101 0
5 86 98 0
9 86 103 0
3 86 121 0
8 86 129 0
8 87 -123 0
7 87 88 0
5 87 139 0
4 88 -125 0
4 88 103 0
7 88 114 0
3 88 127 0
3 89 -138 0
4 89 -107 0
7 89 97 0
5 89 123 0
3 89 131 0
8 89 135 0
8 90 -122 0
3 90 -96 0
3 90 95 0
6 90 121 0
1 91 -134 0
2 91 -129 0
2 91 -127 0
6 91 98 0
9 91 115 0
5 92 -140 0
9 92 -118 0
9 92 -105 0
1 92 -98 0
3 92 139 0
4 93 -126 0
10 93 -125 0
5 93 -118 0
2 93 102 0
8 93 117 0
2 93 122 0
6 94 -117 0
2 94 -95 0
6 94 98 0
3 94 103 0
4 95 -136 0
8 95 -115 0
6 95 140 0
10 96 -116 0
3 96 129 0
8 97 -131 0
8 97 108 0
10 97 110 0
10 98 -125 0
10 98 121 0
6 98 137 0
10 99 -108 0
1 100 -139 0
7 100 -108 0
6 100 -102 0
9 100 111 0
2 100 133 0
5 100 136 0
8 101 -121 0
2 101 -104 0
7 102 -140 0
2 102 121 0
2 103 -139 0
2 103 -114 0
3 103 -107 0
9 103 -106 0
3 103 -104 0
7 103 130 0
1 104 -123 0
7 104 -118 0
9 104 106 0
4 104 117 0
5 105 115 0
5 105 122 0
4 106 -114 0
7 106 -110 0
3 106 122 0
2 107 -131 0
7 108 -126 0
2 108 113 0
2 108 138 0
3 109 -135 0
2 109 -131 0
2 109 -127 0
9 109 -118 0
7 109 123 0
1 109 134 0
10 110 -115 0
2 110 120 0
8 110 122 0
2 112 132 0
8 112 139 0
9 113 -136 0
3 113 -123 0
9 113 -119 0
2 113 130 0
2 114 -123 0
2 114 -120 0
8 115 123 0
3 116 -130 0
8 116 134 0
7 118 -136 0
6 118 129 0
4 119 -128 0
2 120 -132 0
9 122 -129 0
10 122 123 0
4 123 -131 0
1 123 130 0
7 123 138 0
5 124 -125 0
2 125 -132 0
9 125 -129 0
6 125 132 0
3 125 139 0
7 126 139 0
3 127 128 0
3 127 138 0
7 129 -137 0
4 131 -136 0
10 132 134 0
7 132 137 0
3 133 136 0
9 137 139 0
